The latest version of Julia in the `release` channel is 1.11.6+0.x64.linux.gnu. You currently have `1.11.2+0.x64.linux.gnu` installed. Run:

  juliaup update

in your terminal shell to install Julia 1.11.6+0.x64.linux.gnu and update the `release` channel to that version.
[info | PowerModels]: Suppressing information and warning messages for the rest of this session.  Use the Memento package for more fine-grained control of logging.

******************************************************************************
This program contains Ipopt, a library for large-scale nonlinear optimization.
 Ipopt is released as open source code under the Eclipse Public License (EPL).
         For more information visit https://github.com/coin-or/Ipopt
******************************************************************************

This is Ipopt version 3.14.17, running with linear solver ma27.

Number of nonzeros in equality constraint Jacobian...:     2524
Number of nonzeros in inequality constraint Jacobian.:      646
Number of nonzeros in Lagrangian Hessian.............:     3700

Total number of variables............................:      750
                     variables with only lower bounds:       25
                variables with lower and upper bounds:      600
                     variables with only upper bounds:        0
Total number of equality constraints.................:      599
Total number of inequality constraints...............:      323
        inequality constraints with only lower bounds:        0
   inequality constraints with lower and upper bounds:      148
        inequality constraints with only upper bounds:      175

iter    objective    inf_pr   inf_du lg(mu)  ||d||  lg(rg) alpha_du alpha_pr  ls
   0  1.5822799e+02 1.09e+00 1.04e+02  -1.0 0.00e+00    -  0.00e+00 0.00e+00   0
   1  2.3178770e+02 1.09e+00 1.04e+02  -1.0 1.77e+00    -  5.90e-03 3.90e-03h  1
   2  8.9295823e+02 1.05e+00 1.01e+02  -1.0 1.87e+00    -  1.26e-02 3.07e-02h  1
   3  1.5974666e+03 1.02e+00 9.79e+01  -1.0 1.78e+00    -  6.33e-02 2.75e-02h  1

Number of Iterations....: 3

                                   (scaled)                 (unscaled)
Objective...............:   3.1949331303162512e+02    1.5974665651581256e+03
Dual infeasibility......:   9.7895753649059387e+01    4.8947876824529692e+02
Constraint violation....:   1.0235551383841790e+00    1.0235551383841790e+00
Variable bound violation:   9.0490926562221624e-05    9.0490926562221624e-05
Complementarity.........:   7.4474921417162432e+03    3.7237460708581217e+04
Overall NLP error.......:   7.4474921417162432e+03    3.7237460708581217e+04


Number of objective function evaluations             = 4
Number of objective gradient evaluations             = 4
Number of equality constraint evaluations            = 4
Number of inequality constraint evaluations          = 4
Number of equality constraint Jacobian evaluations   = 4
Number of inequality constraint Jacobian evaluations = 4
Number of Lagrangian Hessian evaluations             = 3
Total seconds in IPOPT                               = 4.686

EXIT: Maximum Number of Iterations Exceeded.

[76530] signal 11 (1): Segmentation fault
in expression starting at /home/sanjayjo/ExaModelsPower.jl/benchmarking/benchmark/run_stor_cpu.jl:4
malloc(): unaligned tcache chunk detected

[76530] signal 6: Aborted
in expression starting at /home/sanjayjo/ExaModelsPower.jl/benchmarking/benchmark/run_stor_cpu.jl:4
malloc(): unaligned tcache chunk detected
